Function: get_partitions took 3.504753112792969e-05 seconds
Function: map_flows_partitions took 5.4836273193359375e-06 seconds
Building model with:
4 devices, 10 partitions and 1 flows
Using license file /home/anup/gurobi.lic
Academic license - for non-commercial use only
Function: MIP.add_frac_mem_var took 0.000469207763671875 seconds
Function: MIP.add_coverage_constraints took 0.0003256797790527344 seconds
Function: MIP.add_accuracy_constraints took 0.0008542537689208984 seconds
Function: MIP.add_capacity_constraints took 0.0007364749908447266 seconds
Changed value of parameter TimeLimit to 120.0
   Prev: inf  Min: 0.0  Max: inf  Default: inf
--------------------------------------------------
Starting model update
Model update took: 0.00010800361633300781 s
--------------------------------------------------
Starting model optimize
Gurobi Optimizer version 9.0.0 build v9.0.0rc2 (linux64)
Optimize a model with 59 rows, 90 columns and 213 nonzeros
Model fingerprint: 0x45abb394
Model has 1 general constraint
Variable types: 50 continuous, 40 integer (40 binary)
Coefficient statistics:
  Matrix range     [1e+00, 8e+03]
  Objective range  [1e+00, 1e+00]
  Bounds range     [1e+00, 3e+04]
  RHS range        [1e+00, 1e+00]

---------------------------------------------------------------------------
Multi-objectives: starting optimization with 2 objectives ... 
---------------------------------------------------------------------------

Multi-objectives: applying initial presolve ...
---------------------------------------------------------------------------

Presolve removed 44 rows and 47 columns
Presolve time: 0.00s
Presolved: 15 rows and 43 columns
---------------------------------------------------------------------------

Multi-objectives: optimize objective 1 (max_mem) ...
---------------------------------------------------------------------------

Presolve removed 9 rows and 28 columns
Presolve time: 0.00s
Presolved: 6 rows, 15 columns, 22 nonzeros
Presolved model has 2 SOS constraint(s)
Variable types: 3 continuous, 12 integer (8 binary)
Found heuristic solution: objective 16989.265625

Root relaxation: objective 1.274195e+04, 6 iterations, 0.00 seconds

    Nodes    |    Current Node    |     Objective Bounds      |     Work
 Expl Unexpl |  Obj  Depth IntInf | Incumbent    BestBd   Gap | It/Node Time

     0     0 12741.9492    0    2 16989.2656 12741.9492  25.0%     -    0s
     0     0     cutoff    0      16989.2656 16989.2656  0.00%     -    0s

Cutting planes:
  Gomory: 1

Explored 1 nodes (6 simplex iterations) in 0.00 seconds
Thread count was 8 (of 8 available processors)

Solution count 1: 16989.3 

Optimal solution found (tolerance 1.00e-04)
Best objective 1.698926562500e+04, best bound 1.698926562500e+04, gap 0.0000%
---------------------------------------------------------------------------

Multi-objectives: optimize objective 2 (tot_mem) ...
---------------------------------------------------------------------------


Loaded user MIP start with objective 26469.3

Presolve removed 3 rows and 11 columns
Presolve time: 0.00s
Presolved: 13 rows, 32 columns, 53 nonzeros
Presolved model has 2 SOS constraint(s)
Found heuristic solution: objective 25976.601563
Variable types: 3 continuous, 29 integer (29 binary)

Root relaxation: cutoff, 14 iterations, 0.00 seconds

    Nodes    |    Current Node    |     Objective Bounds      |     Work
 Expl Unexpl |  Obj  Depth IntInf | Incumbent    BestBd   Gap | It/Node Time

     0     0     cutoff    0      25976.6016 25976.6016  0.00%     -    0s

Explored 0 nodes (14 simplex iterations) in 0.01 seconds
Thread count was 8 (of 8 available processors)

Solution count 2: 25976.6 26469.3 

Optimal solution found (tolerance 1.00e-04)
Best objective 2.597660156250e+04, best bound 2.597660156250e+04, gap 0.0000%

---------------------------------------------------------------------------
Multi-objectives: solved in 0.01 seconds, solution count 2

Model optimize took: 0.005403041839599609 seconds
--------------------------------------------------

Solution quality statistics for model Univmon :
  Maximum violation:
    Bound       : 0.00000000e+00
    Constraint  : 4.18367563e-11 (mem_tot_CPU_1)
    Integrality : 0.00000000e+00

Sketch (0) (cm: eps0: 7.500000000000001e-05, del0: 0.05, min_mem: 141.578125)
Par: 1, Rows: 1
(1.000,3)    (0.000,0)    (0.000,1)    (0.000,2)    
Total frac: 1.000
Par: 2, Rows: 1
(0.000,2)    (0.000,1)    (0.000,0)    (1.000,3)    
Total frac: 1.000
Par: 3, Rows: 1
(0.000,1)    (0.000,2)    (1.000,3)    (0.000,0)    
Total frac: 1.000

Sketch (1) (cm: eps0: 1.25e-06, del0: 0.05, min_mem: 8494.6328125)
Par: 1, Rows: 1
(1.000,1)    (0.000,0)    (0.000,3)    (0.000,2)    
Total frac: 1.000
Par: 2, Rows: 1
(0.000,2)    (1.000,0)    (0.000,1)    (0.000,3)    
Total frac: 1.000
Par: 3, Rows: 1
(0.000,2)    (1.000,1)    (0.000,0)    (0.000,3)    
Total frac: 1.000

Sketch (2) (cm: eps0: 0.000625, del0: 0.025, min_mem: 16.9921875)
Par: 1, Rows: 1
(0.000,1)    (1.000,3)    (0.000,2)    (0.000,0)    
Total frac: 1.000
Par: 2, Rows: 1
(0.000,0)    (0.000,3)    (1.000,2)    (0.000,1)    
Total frac: 1.000
Par: 3, Rows: 1
(0.000,2)    (0.000,0)    (1.000,3)    (0.000,1)    
Total frac: 1.000
Par: 4, Rows: 1
(1.000,2)    (0.000,3)    (0.000,1)    (0.000,0)    
Total frac: 1.000

Device (0) CPU_1:
Rows total: 1.0
Mem total: 8494.632812500042

Device (1) CPU_2:
Rows total: 2.0
Mem total: 16989.265624999985

Device (2) P4_1:
Rows total: 2.0
Mem total: 33.984375

Device (3) P4_2:
Rows total: 5.0
Mem total: 458.71875
--------------------------------------------------
Changed value of parameter NonConvex to 2
   Prev: -1  Min: -1  Max: 2  Default: -1
Changed value of parameter NonConvex to 2
   Prev: -1  Min: -1  Max: 2  Default: -1

Throughput: 70.00000000000064 Mpps, ns per packet: 14.285714285714155
Resources: 115.12547588348444
Used Cores: 10.000000000000055, Total CPUS: 2, Switch Memory: 492.703125

Sketch (0) (cm: eps0: 7.500000000000001e-05, del0: 0.05, min_mem: 141.578125)
Par: 1, Rows: 1
(1.000,3)    (0.000,0)    (0.000,1)    (0.000,2)    
Total frac: 1.000
Par: 2, Rows: 1
(0.000,2)    (0.000,1)    (0.000,0)    (1.000,3)    
Total frac: 1.000
Par: 3, Rows: 1
(0.000,1)    (0.000,2)    (1.000,3)    (0.000,0)    
Total frac: 1.000

Sketch (1) (cm: eps0: 1.25e-06, del0: 0.05, min_mem: 8494.6328125)
Par: 1, Rows: 1
(1.000,1)    (0.000,0)    (0.000,3)    (0.000,2)    
Total frac: 1.000
Par: 2, Rows: 1
(0.000,2)    (1.000,0)    (0.000,1)    (0.000,3)    
Total frac: 1.000
Par: 3, Rows: 1
(0.000,2)    (1.000,1)    (0.000,0)    (0.000,3)    
Total frac: 1.000

Sketch (2) (cm: eps0: 0.000625, del0: 0.025, min_mem: 16.9921875)
Par: 1, Rows: 1
(0.000,1)    (1.000,3)    (0.000,2)    (0.000,0)    
Total frac: 1.000
Par: 2, Rows: 1
(0.000,0)    (0.000,3)    (1.000,2)    (0.000,1)    
Total frac: 1.000
Par: 3, Rows: 1
(0.000,2)    (0.000,0)    (1.000,3)    (0.000,1)    
Total frac: 1.000
Par: 4, Rows: 1
(1.000,2)    (0.000,3)    (0.000,1)    (0.000,0)    
Total frac: 1.000

Device (0) CPU_1:
cores_sketch: 1.0, cores_dpdk: 3.0
Rows total: 1.0
Mem total: 8494.632812500042
Throughput: 70.00000000000064

Device (1) CPU_2:
cores_sketch: 2.9999999999999987, cores_dpdk: 3.000000000000056
Rows total: 2.0
Mem total: 16989.265624999985
Throughput: 70.00000000000064

Device (2) P4_1:
Rows total: 2.0
Mem total: 33.984375
Throughput: 148.0

Device (3) P4_2:
Rows total: 5.0
Mem total: 458.71875
Throughput: 148.0
--------------------------------------------------
Function: MIP.solve took 0.03375411033630371 seconds
Function: solve took 0.034081459045410156 seconds
